p tw 26 521 1 
1 2 
1 3 
1 4 
1 5 
1 6 
1 7 
1 8 
1 9 
1 10 
1 11 
1 12 
1 13 
2 14 
2 15 
2 16 
2 17 
2 18 
2 19 
2 20 
2 21 
2 22 
2 23 
2 24 
2 25 
2 26 
1 14 
1 15 
1 16 
1 17 
2 14 
2 18 
2 19 
2 20 
3 14 
3 21 
3 22 
3 23 
4 14 
4 24 
4 25 
4 26 
5 15 
5 18 
5 21 
5 24 
6 15 
6 19 
6 22 
6 25 
7 15 
7 20 
7 23 
7 26 
8 16 
8 18 
8 23 
8 25 
9 16 
9 19 
9 21 
9 26 
10 16 
10 20 
10 22 
10 24 
11 17 
11 18 
11 22 
11 26 
12 17 
12 19 
12 23 
12 24 
13 17 
13 20 
13 21 
13 25 
